p cnf 32 26
1 7 0
-1 8 0
2 3 4 1 9 0
2 3 4 -1 10 0
2 3 -4 1 11 0
2 3 -4 -1 12 0
2 -3 4 1 13 0
2 -3 4 -1 14 0
2 -3 -4 1 15 0
2 -3 -4 -1 16 0
-2 3 4 1 17 0
-2 3 4 -1 18 0
-2 3 -4 1 19 0
-2 3 -4 -1 20 0
4 21 0
-4 22 0
5 2 3 23 0
5 2 -3 24 0
5 -2 3 25 0
-5 2 3 26 0
-5 2 -3 27 0
-5 -2 3 28 0
6 4 29 0
6 -4 30 0
-6 4 31 0
-6 -4 32 0